 $CONTRL SCFTYP=RHF RUNTYP=ENERGY $END
 $BASIS  GBASIS=TZV NDFUNC=1 DIFFSP=.T. $END
 $GUESS  GUESS=HUCKEL $END
 $DATA
C atom
C1
 C           6.0  0.0000000000   0.0000000000   0.0000000000
 $END
