 $CONTRL SCFTYP=RHF RUNTYP=HESSIAN
         NPRINT=3 AIMPAC=1 $END
 $BASIS  GBASIS=STO NGAUSS=3 $END
 $GUESS  GUESS=HUCKEL $END
 $DFT DFTTYP=B3LYP $END
 $DATA
divinylbenzene
C1
 C           6.0  -1.3941107509   0.2208293139  -0.0000006358
 C           6.0   1.3941117303  -0.2208286332   0.0000001833
 C           6.0  -0.4923471898   1.2865901825   0.0000004498
 C           6.0   0.4923475777  -1.2865905816  -0.0000002578
 C           6.0   0.8730878671   1.0735285539  -0.0000001091
 C           6.0  -0.8730884520  -1.0735286998   0.0000003926
 H           1.0  -0.8722851923   2.3002954887  -0.0000000724
 H           1.0   0.8722851289  -2.3002953663   0.0000001108
 H           1.0   1.5386658953   1.9257987082  -0.0000000254
 H           1.0  -1.5386657690  -1.9257986267   0.0000000106
 C           6.0   2.8623037181  -0.5087991700   0.0000000237
 C           6.0  -2.8623098309   0.5087922913  -0.0000000180
 H           1.0   3.1073252530  -1.5651468624  -0.0000001787
 H           1.0  -3.1073253929   1.5651483745   0.0000000097
 C           6.0   3.8384128426   0.3703036622   0.0000000976
 C           6.0  -3.8384060608  -0.3702972735   0.0000000360
 H           1.0   3.6716782259   1.4377653068   0.0000000044
 H           1.0  -3.6716782109  -1.4377668312  -0.0000000001
 H           1.0   4.8737900006   0.0590112925  -0.0000000359
 H           1.0  -4.8737913900  -0.0590111296   0.0000000148
 $END
